c Output_time 26.03.2020 18:15:16_+0100 1585242916046070591
c ** Program information **
c program_name                          "QBRG_debug"
c version                               "0.3.20"
c date                                  "25.3.2020"
c gid_id                                "673970833836058123f633335630c185360d632e"
c author                                "Oliver Kullmann"
c url                                   "https://github.com/OKullmann/oklibrary/blob/master/Satisfiability/Transformers/Generators/Random/QBRG.cpp"
c ** Machine information **
c machine_name                          "chyna-Lenovo-G50-70"
c bogomips                              3791.08
c ** Compilation information **
c compiler_version                      "g++ 7.5.0"
c compilation_date                      "Mar_26_2020 11:16:30"
c compilation_options                   "--std=c++17 -pedantic -fmax-errors=5 -Wall -Wextra -g -D_GLIBCXX_DEBUG"
c NDEBUG                                0
c OPTIMIZE                              0
c ** Parameters **
c command-line                          "./QBRG_debug" "a40 e40 a40 40" "338*1,1|2-2,1|3-3,1|4-4,1" "" "1,t" ""
c output                                "QuBlRaGe_160_338_1585242916045898169.qdimacs"
c options                               "filtered,renamed"
c num_quantifier_blocks                 4
c  quantifier_blocks                    1:a1-40 2:e41-80 3:a81-120 4:e121-160
c num_clause-blocks                     1
c  clause-blocks                        338 * {1-40,1,1/2} | {41-80,1,1/2} | {81-120,1,1/2} | {121-160,1,1/2}
c num_e-seeds                           37+2=39
c  e-seeds                              1 0 1 0 5 160 2 40 0 40 1 40 0 40 1 338 4 1 1 1 1 2 2 2 1 1 2 3 3 1 1 2 4 4 1 1 2 1 1585242916045897459
p cnf 160 338
a 1 2 3 4 5 6 7 8 9 10 11 12 13 14 15 16 17 18 19 20 21 22 23 24 25 26 27 28 29 30 31 32 33 34 35 36 37 38 39 40 0
e 41 42 43 44 45 46 47 48 49 50 51 52 53 54 55 56 57 58 59 60 61 62 63 64 65 66 67 68 69 70 71 72 73 74 75 76 77 78 79 80 0
a 81 82 83 84 85 86 87 88 89 90 91 92 93 94 95 96 97 98 99 100 101 102 103 104 105 106 107 108 109 110 111 112 113 114 115 116 117 118 119 120 0
e 121 122 123 124 125 126 127 128 129 130 131 132 133 134 135 136 137 138 139 140 141 142 143 144 145 146 147 148 149 150 151 152 153 154 155 156 157 158 159 160 0
19 61 90 -121 0
5 -77 -95 -121 0
7 77 -101 121 0
-7 -70 -105 121 0
-24 -58 -90 -122 0
-38 -46 -101 -122 0
-28 -46 103 -122 0
-21 -79 -108 -122 0
-5 -78 -111 -122 0
-20 62 -112 -122 0
23 44 -94 122 0
-14 -41 101 122 0
-39 -64 -81 -123 0
31 58 -89 -123 0
23 -67 -93 -123 0
-26 -74 -114 -123 0
33 74 -115 -123 0
36 -45 81 123 0
-38 79 83 123 0
2 76 84 123 0
-38 -67 89 123 0
2 59 96 123 0
24 41 99 123 0
20 -42 101 123 0
37 63 113 123 0
40 78 -114 123 0
29 77 85 -124 0
-1 69 -89 -124 0
16 75 -105 -124 0
12 47 106 -124 0
-31 79 -108 -124 0
34 50 109 -124 0
-37 -68 -111 -124 0
-35 -62 118 -124 0
-17 60 -104 124 0
-13 63 104 124 0
20 -44 -109 124 0
-4 57 -113 124 0
-19 60 119 124 0
-37 53 -89 -125 0
-34 49 -91 -125 0
-24 -73 92 -125 0
-18 -52 105 -125 0
-20 67 -107 -125 0
-11 66 110 -125 0
35 55 -111 -125 0
16 -61 -84 125 0
-26 60 -98 125 0
-19 -76 -98 125 0
-39 -45 105 125 0
7 75 -114 125 0
-1 78 -82 -126 0
37 50 89 -126 0
-25 64 93 -126 0
16 55 -106 -126 0
-14 64 -106 -126 0
-5 -68 114 126 0
21 -48 -86 -127 0
30 41 116 -127 0
17 -74 81 127 0
22 -71 114 127 0
40 49 -117 127 0
30 -76 87 -128 0
-1 64 92 -128 0
7 77 -101 128 0
-10 -68 -102 128 0
15 -72 105 128 0
32 73 -82 -129 0
-19 68 -115 -129 0
-13 48 120 -129 0
14 60 81 129 0
33 -62 82 129 0
-10 -76 103 129 0
-19 -55 -89 -130 0
-23 73 -93 -130 0
-18 -53 98 -130 0
-18 -66 117 -130 0
-27 -48 88 130 0
-1 -68 88 130 0
-40 -49 99 130 0
-5 78 118 130 0
33 -46 -105 -131 0
35 -58 -108 -131 0
-34 -55 -116 -131 0
7 -66 90 131 0
-11 -68 -118 131 0
-28 -67 -95 -132 0
-29 -74 95 -132 0
-22 -72 104 132 0
26 -73 104 132 0
-18 -47 108 132 0
-22 -55 84 -133 0
36 -53 96 -133 0
15 -62 -114 -133 0
-38 56 114 -133 0
18 -57 117 -133 0
25 -54 -82 133 0
-3 -64 90 133 0
-4 79 82 -134 0
-7 50 92 -134 0
-9 -67 -102 -134 0
27 56 -108 -134 0
31 52 113 -134 0
21 -50 84 134 0
-39 -53 -89 134 0
22 -66 -96 134 0
17 -41 112 134 0
4 -80 -120 134 0
-1 52 -81 -135 0
-4 -65 -86 -135 0
31 -58 -89 -135 0
-13 -43 -110 -135 0
-39 -67 -114 -135 0
17 -62 118 -135 0
5 75 119 -135 0
31 70 87 135 0
-29 75 -100 135 0
32 -60 -108 135 0
34 -60 -109 135 0
-35 -45 -93 -136 0
23 71 -96 -136 0
-27 -63 -108 -136 0
-22 -79 -81 136 0
-10 57 -84 136 0
-32 -80 -89 136 0
-9 76 -90 136 0
25 -73 -91 136 0
20 59 91 136 0
-6 -76 -103 136 0
-12 59 -112 136 0
-14 57 114 136 0
-36 -76 91 -137 0
35 42 -99 -137 0
-38 -51 -102 -137 0
2 45 103 -137 0
-25 54 118 -137 0
-16 76 85 137 0
-13 43 86 137 0
-7 -60 91 137 0
15 79 -117 137 0
21 51 -118 137 0
22 -41 84 -138 0
-3 -47 85 -138 0
31 53 -106 -138 0
17 -43 108 -138 0
2 -75 90 138 0
-28 -53 -109 138 0
-34 -52 114 138 0
15 48 -115 138 0
28 -45 81 -139 0
-38 -62 -88 -139 0
-17 73 -97 -139 0
27 -60 -106 -139 0
37 -70 108 -139 0
-3 73 -94 139 0
-8 -50 107 139 0
38 -45 -89 -140 0
9 50 -89 -140 0
-26 57 94 -140 0
15 54 101 140 0
-37 68 -102 140 0
33 -57 -103 140 0
39 58 -109 140 0
28 -52 -112 140 0
11 -68 -113 140 0
-23 -50 -116 140 0
22 65 -87 -141 0
36 -46 -102 -141 0
25 -50 -102 -141 0
5 -67 120 -141 0
-16 -49 -118 141 0
-18 74 -84 -142 0
19 -74 85 -142 0
28 -64 96 -142 0
11 53 100 -142 0
-28 66 103 -142 0
-14 49 -105 -142 0
-34 -65 -117 -142 0
-32 52 -118 -142 0
-8 -63 -89 142 0
-32 63 100 142 0
-36 -63 -113 142 0
-31 62 115 142 0
-3 -55 -119 142 0
-39 -52 -88 -143 0
23 -62 89 -143 0
-39 -52 -96 -143 0
9 -55 102 -143 0
25 -76 -82 143 0
-31 -48 100 143 0
-24 80 103 143 0
-17 -66 104 143 0
4 52 -108 143 0
11 -61 -86 -144 0
37 53 -93 -144 0
-37 79 104 -144 0
-22 -65 -116 -144 0
22 -74 90 144 0
32 -74 91 144 0
39 77 95 144 0
38 -42 -101 144 0
32 62 -99 -145 0
11 46 101 -145 0
32 64 104 145 0
6 -77 -81 -146 0
-40 42 -95 -146 0
-27 -66 108 -146 0
26 -57 -113 -146 0
9 41 -117 -146 0
-21 43 118 -146 0
-38 52 91 146 0
-40 -49 117 146 0
2 -58 86 -147 0
-23 -64 -104 -147 0
6 52 -117 -147 0
-11 -59 -85 147 0
5 -60 -91 147 0
-24 -68 -95 147 0
20 -64 120 147 0
28 54 -83 -148 0
39 73 -95 -148 0
-1 49 -99 -148 0
19 -60 119 -148 0
28 -57 -81 148 0
37 -66 -83 148 0
20 45 -101 148 0
28 -61 105 148 0
17 -42 82 -149 0
6 -43 -86 -149 0
28 72 88 -149 0
12 -66 -104 -149 0
-11 -54 -108 -149 0
-33 -43 -93 149 0
-3 65 101 149 0
19 65 -84 -150 0
-20 -70 84 -150 0
8 42 92 -150 0
35 61 -100 -150 0
40 66 117 -150 0
13 66 85 150 0
37 -73 85 150 0
-6 71 86 150 0
-17 57 109 150 0
-37 -42 -110 150 0
5 -66 111 150 0
-37 55 -117 150 0
15 -47 -83 -151 0
40 -80 -87 151 0
10 42 93 151 0
-22 -67 -105 151 0
3 66 105 151 0
12 43 105 -152 0
-40 69 106 -152 0
36 63 110 -152 0
1 54 83 152 0
-2 68 -89 152 0
-16 66 -91 152 0
16 63 94 152 0
5 45 -98 152 0
9 -68 -99 152 0
34 -53 111 152 0
-7 77 -113 152 0
-13 -56 120 152 0
38 73 -84 -153 0
34 -79 88 -153 0
20 49 98 -153 0
5 45 111 -153 0
40 -46 -95 153 0
-4 -59 -95 153 0
6 57 104 153 0
20 75 107 153 0
-9 -78 -108 153 0
11 -51 -111 153 0
19 -74 115 153 0
-12 73 -116 153 0
-1 -54 100 -154 0
-9 70 -120 -154 0
38 -44 120 -154 0
20 42 -85 154 0
-6 51 85 154 0
-21 -51 119 154 0
-25 55 -120 154 0
-15 -73 89 -155 0
1 -69 110 -155 0
12 -62 -111 -155 0
38 41 112 -155 0
7 57 -113 -155 0
39 -50 113 -155 0
-23 78 81 155 0
-11 68 86 155 0
-30 80 92 155 0
33 47 -120 155 0
36 -57 85 -156 0
24 -58 97 -156 0
-26 -60 101 -156 0
27 -75 -102 -156 0
4 41 -104 -156 0
21 -57 116 -156 0
24 -65 -92 156 0
-23 -80 104 156 0
22 55 -107 156 0
30 75 110 156 0
-29 75 -81 -157 0
-31 45 100 -157 0
-19 61 103 -157 0
-4 -76 106 -157 0
-1 65 -108 -157 0
-8 49 108 -157 0
-35 41 112 -157 0
-32 73 110 157 0
-14 -68 118 157 0
-3 60 87 -158 0
34 -53 -93 -158 0
29 -74 -116 -158 0
39 -46 -118 -158 0
15 50 -85 158 0
-32 -57 91 158 0
19 48 -92 158 0
-30 64 -97 -159 0
1 57 108 -159 0
-31 -73 -118 -159 0
6 -58 -120 -159 0
-9 59 -83 159 0
17 -69 -98 159 0
15 62 -110 159 0
30 43 82 -160 0
-9 -60 -90 -160 0
5 52 -98 -160 0
12 62 -101 -160 0
20 -73 112 -160 0
9 68 115 -160 0
-16 79 83 160 0
-26 70 105 160 0
32 -44 -107 160 0
-19 72 -109 160 0
8 62 109 160 0
33 55 110 160 0
-40 -72 115 160 0
